NAME: custom36
TYPE: TSP
COMMENT: 
DIMENSION: 36
NODE_COORD_SECTION
1 3946800 7590000
2 3946800 6534000
3 3735600 5425200
4 3102000 5002800
5 3313200 3577200
6 4369200 2996400
7 3946800 1623600
8 2574000 1095600
9 1887600 1887600
10 0198000 1306800
11 4158000 0409200
12 6164399 1980000
13 5425200 1412400
14 6639599 2257200
15 6058800 3049200
16 6639599 4422000
17 7695600 4844400
18 7854000 3735600
19 10210000 1960000
20 10240000 1480000
21 9350000 1750000
22 9670000 2090000
23 9890000 2360000
24 10130000 2720000
25 10890000 2130000
26 9701999 5794800
27 5478000 7326000
28 6745200 6005999
29 5108400 5266800
EOF